NAME : n60w140.004.578.tour
COMMENT : Length = 578
COMMENT : Found by LKH [Keld Helsgaun] Tue Nov  7 19:39:19 2017
TYPE : TOUR
DIMENSION : 61
TOUR_SECTION
1
4
56
11
51
9
39
27
14
25
13
10
33
32
36
28
24
30
54
50
16
6
22
40
23
44
42
58
60
5
38
20
55
8
15
52
31
12
45
21
49
3
18
48
19
2
43
34
47
17
35
37
29
26
41
61
53
59
57
46
7
-1
EOF
